(declare-const b Int)
(declare-const |d':75:125:130| Int)
(declare-const |e':62:72:74| Int)
(declare-const |a':132| Int)
(declare-const |d':75:86:89| Int)
(declare-const |e':62| Int)
(declare-const d Int)
(declare-const |K:70:71:73| Int)
(declare-const |b':110:126:131| Int)
(declare-const |K:101:102:106| Int)
(declare-const |d':75:103:107| Int)
(declare-const |c':91:123:128| Int)
(declare-const |K:144| Int)
(declare-const |e':62:104:108| Int)
(declare-const |K:121:122:127| Int)
(declare-const |b':110| Int)
(declare-const |d':75| Int)
(declare-const |c':91| Int)
(declare-const |e':62:124:129| Int)
(declare-const |e':62:87:90| Int)
(declare-const e Int)
(declare-const c Int)
(declare-const |c':91:105:109| Int)
(declare-const |K:84:85:88| Int)
(assert (and (or (not (and (<= (- |K:144|) 0) (<= |K:144| 0)))
                   (= (+ (- b) |b':110|) 0))
               (or (not (<= (+ (- |K:144|) 1) 0))
                     (= (+ |b':110| -4294967294) 0))
               (or (not (and (<= (- |K:144|) 0) (<= |K:144| 0)))
                     (= (+ (- c) |c':91|) 0))
               (or (not (<= (+ (- |K:144|) 1) 0))
                     (= (+ |c':91| -4294967294) 0))
               (or (not (<= (- |K:144|) 0)) (= (+ |a':132| (- |K:144|)) 0))
               (or (not (and (<= (- |K:144|) 0) (<= |K:144| 0)))
                     (= (+ (- d) |d':75|) 0))
               (or (not (<= (+ (- |K:144|) 1) 0))
                     (= (+ |d':75| -4294967294) 0))
               (or (not (and (<= (- |K:144|) 0) (<= |K:144| 0)))
                     (= (+ (- e) |e':62|) 0))
               (or (not (<= (+ (- |K:144|) 1) 0))
                     (= (+ |e':62| -4294967294) 0))
               (or (and (= |K:144| 0) (= (+ e (- |e':62|)) 0)
                          (= (+ d (- |d':75|)) 0) (= (+ c (- |c':91|)) 0)
                          (= (+ b (- |b':110|)) 0) (= (- |a':132|) 0))
                     (and (<= (+ (- |K:144|) 1) 0)
                            (= (+ |e':62| -4294967294) 0)
                            (= (+ |d':75| -4294967294) 0)
                            (= (+ |c':91| -4294967294) 0)
                            (= (+ |b':110| -4294967294) 0)
                            (<= (+ |a':132| -4294967294) 0)
                            (<= (+ (- |a':132|) 1) 0))) (<= (- |K:144|) 0)
               (<= (- |a':132|) 0) (< (+ |a':132| -4294967294) 0)
               (or (not (and (<= (- |K:121:122:127|) 0)
                               (<= |K:121:122:127| 0)))
                     (= (+ |c':91:123:128| (- |c':91|)) 0))
               (or (not (<= (+ (- |K:121:122:127|) 1) 0))
                     (= (+ |c':91:123:128| -4294967294) 0))
               (or (not (and (<= (- |K:121:122:127|) 0)
                               (<= |K:121:122:127| 0)))
                     (= (+ |e':62:124:129| (- |e':62|)) 0))
               (or (not (<= (+ (- |K:121:122:127|) 1) 0))
                     (= (+ |e':62:124:129| -4294967294) 0))
               (or (not (and (<= (- |K:121:122:127|) 0)
                               (<= |K:121:122:127| 0)))
                     (= (+ |d':75:125:130| (- |d':75|)) 0))
               (or (not (<= (+ (- |K:121:122:127|) 1) 0))
                     (= (+ |d':75:125:130| -4294967294) 0))
               (or (not (<= (- |K:121:122:127|) 0))
                     (= (+ |b':110:126:131| (- |K:121:122:127|)) 0))
               (or (and (= |K:121:122:127| 0)
                          (= (+ (- |e':62:124:129|) |e':62|) 0)
                          (= (+ (- |d':75:125:130|) |d':75|) 0)
                          (= (+ (- |c':91:123:128|) |c':91|) 0)
                          (= (- |b':110:126:131|) 0))
                     (and (<= (+ (- |K:121:122:127|) 1) 0)
                            (<= (- |a':132|) 0)
                            (= (+ |e':62:124:129| -4294967294) 0)
                            (= (+ |d':75:125:130| -4294967294) 0)
                            (= (+ |c':91:123:128| -4294967294) 0)
                            (<= (+ |b':110:126:131| -4294967294) 0)
                            (<= (- |a':132|) 0)
                            (<= (+ (- |b':110:126:131|) 1) 0)))
               (<= (- |K:121:122:127|) 0) (<= (- |b':110:126:131|) 0)
               (<= (- |a':132|) 0) (< (+ |b':110:126:131| -4294967294) 0)
               (or (not (and (<= (- |K:101:102:106|) 0)
                               (<= |K:101:102:106| 0)))
                     (= (+ |d':75:103:107| (- |d':75:125:130|)) 0))
               (or (not (<= (+ (- |K:101:102:106|) 1) 0))
                     (= (+ |d':75:103:107| -4294967294) 0))
               (or (not (and (<= (- |K:101:102:106|) 0)
                               (<= |K:101:102:106| 0)))
                     (= (+ |e':62:104:108| (- |e':62:124:129|)) 0))
               (or (not (<= (+ (- |K:101:102:106|) 1) 0))
                     (= (+ |e':62:104:108| -4294967294) 0))
               (or (not (<= (- |K:101:102:106|) 0))
                     (= (+ |c':91:105:109| (- |K:101:102:106|)) 0))
               (or (and (= |K:101:102:106| 0)
                          (= (+ (- |e':62:104:108|) |e':62:124:129|) 0)
                          (= (+ (- |d':75:103:107|) |d':75:125:130|) 0)
                          (= (- |c':91:105:109|) 0))
                     (and (<= (+ (- |K:101:102:106|) 1) 0)
                            (<= (- |b':110:126:131|) 0) (<= (- |a':132|) 0)
                            (= (+ |e':62:104:108| -4294967294) 0)
                            (= (+ |d':75:103:107| -4294967294) 0)
                            (<= (+ |c':91:105:109| -4294967294) 0)
                            (<= (- |b':110:126:131|) 0) (<= (- |a':132|) 0)
                            (<= (+ (- |c':91:105:109|) 1) 0)))
               (<= (- |K:101:102:106|) 0) (<= (- |c':91:105:109|) 0)
               (<= (- |b':110:126:131|) 0) (<= (- |a':132|) 0)
               (< (+ |c':91:105:109| -4294967294) 0)
               (or (not (<= (- |K:84:85:88|) 0))
                     (= (+ |d':75:86:89| (- |K:84:85:88|)) 0))
               (or (not (and (<= (- |K:84:85:88|) 0) (<= |K:84:85:88| 0)))
                     (= (+ |e':62:87:90| (- |e':62:104:108|)) 0))
               (or (not (<= (+ (- |K:84:85:88|) 1) 0))
                     (= (+ |e':62:87:90| -4294967294) 0))
               (or (and (= |K:84:85:88| 0)
                          (= (+ (- |e':62:87:90|) |e':62:104:108|) 0)
                          (= (- |d':75:86:89|) 0))
                     (and (<= (+ (- |K:84:85:88|) 1) 0)
                            (<= (- |c':91:105:109|) 0)
                            (<= (- |b':110:126:131|) 0) (<= (- |a':132|) 0)
                            (= (+ |e':62:87:90| -4294967294) 0)
                            (<= (+ |d':75:86:89| -4294967294) 0)
                            (<= (- |c':91:105:109|) 0)
                            (<= (- |b':110:126:131|) 0) (<= (- |a':132|) 0)
                            (<= (+ (- |d':75:86:89|) 1) 0)))
               (<= (- |K:84:85:88|) 0) (<= (- |d':75:86:89|) 0)
               (<= (- |c':91:105:109|) 0) (<= (- |b':110:126:131|) 0)
               (<= (- |a':132|) 0) (< (+ |d':75:86:89| -4294967294) 0)
               (or (not (<= (- |K:70:71:73|) 0))
                     (= (+ |e':62:72:74| (- |K:70:71:73|)) 0))
               (or (and (= |K:70:71:73| 0) (= (- |e':62:72:74|) 0))
                     (and (<= (+ (- |K:70:71:73|) 1) 0) (<= (- |a':132|) 0)
                            (<= (- |b':110:126:131|) 0)
                            (<= (- |d':75:86:89|) 0)
                            (<= (- |c':91:105:109|) 0)
                            (<= (+ |e':62:72:74| -4294967294) 0)
                            (<= (- |a':132|) 0) (<= (- |b':110:126:131|) 0)
                            (<= (- |d':75:86:89|) 0)
                            (<= (- |c':91:105:109|) 0)
                            (<= (+ (- |e':62:72:74|) 1) 0)))
               (<= (- |K:70:71:73|) 0) (<= (- |e':62:72:74|) 0)
               (<= (- |d':75:86:89|) 0) (<= (- |c':91:105:109|) 0)
               (<= (- |b':110:126:131|) 0) (<= (- |a':132|) 0)
               (< (+ |e':62:72:74| -4294967294) 0)
               (= (+ (- |b':110:126:131|) |a':132|) 0)
               (= (+ (- |c':91:105:109|) |b':110:126:131|) 0)
               (= (+ (- |d':75:86:89|) |c':91:105:109|) 0)
               (= (+ (- |e':62:72:74|) |d':75:86:89|) 0)
               (= (+ |e':62:72:74| -4294967293) 0)))
(check-sat)
